	pair_style eam/fs
	pair_coeff  * * Fe_mm.eam.fs Fe
