# solid Fe walls.
# Defining force-field styles 
solid_walls {

write_once("In Init") {
	units real
	atom_style full
	pair_style hybrid lj/cut 10.0 eam/fs 
}

write_once("Data Masses") {
	@atom:Fe3 55.845
}

# Pair-wise non-bonded force-field parameters.

write_once("In Settings") {
	pair_coeff @atom:Fe1 @atom:Fe1 Fe_mm.eam.fs Fe 
	pair_coeff @atom:Fe2 @atom:Fe2 Fe_mm.eam.fs Fe 
	pair_coeff @atom:Fe3 @atom:Fe3 lj/cut 0.02045 3.21 

}

} 
